webassembly/ejemplos_dzn/10/folder10_json_35.dzn
TERM = { '.', 's(2)', 's(5)', 's(4)', 'in_1', 'local_0', 'local_1', 'in_2', 's(6)', 's(1)', 's(0)', 's(3)', 'in_0'};
null = '.';
s = 10;
n = 10;
ndeps = 5;
max_registers_sz = 4;
NR = 1;
registers = [|'local_1', 's(4)'|];
dependencies = [|'call[function_index(0)]_0', 'call[function_index(1)]_1', |'call[function_index(1)]_1', 'i32.load16_s_4', |'i32.load16_s_4', 'i32.store8_6', |'i32.store8_6', 'i32.load_8', |'i32.load_8', 'i32.store_9'|];
GET_ENUM = { GET1, GET2, GET3, GET4, GET5};
SET_ENUM = { SET1, SET2, SET3, SET4, SET5};
TEE_ENUM = { TEE1, TEE2, TEE3, TEE4, TEE5};
N = 8;
OP = { 'call[function_index(0)]_0', 'call[function_index(1)]_1', 'i32.load16_s_4', 'i32.store8_6', 'i32.add_0', 'i32.load_8', 'i32.store_9', 'local.get_0' };
in_ops = [0, 3, 1, 2, 2, 1, 2, 0 ];
out_ops = [1, 3, 1, 0, 1, 1, 0, 1 ];
in1 = ['.', 's(0)', 'local_0', 's(4)', 's(2)', 's(5)', 's(6)', '.' ];
in2 = ['.', 'in_0', '.', 's(3)', 's(1)', '.', 'in_2', '.' ];
in3 = ['.', 'in_1', '.', '.', '.', '.', '.', '.' ];
out1 = ['s(0)', 's(3)', 's(4)', '.', 's(5)', 's(6)', '.', 'local_0' ];
out2 = ['.', 's(2)', '.', '.', '.', '.', '.', '.' ];
out3 = ['.', 's(1)', '.', '.', '.', '.', '.', '.' ];
comm = [false, false, false, false, true, false, false, false ];
gas = [1, 1, 1, 1, 1, 1, 1, 1 ];
sz = [1, 1, 1, 1, 1, 1, 1, 1 ];
stor = [true, true, false, true, false, false, true, false ];
lb = [ 1, 1, 1, 1, 1, 1, 1, 1 ];
ub = [ 10, 10, 10, 10, 10, 10, 10, 10 ];
startstack = [ 'in_0', 'in_1', 'in_2', null, null, null, null, null, null, null ];
endstack = [ null, null, null, null, null, null, null, null, null, null ];
